/*********************************************
 * OPL 12.6.0.0 Data
 * Author: Adrian Rodriguez Bazaga, Pau Rodriguez Esmerats
 * Creation Date: 21/11/2017 at 20:50:30
 *********************************************/

nNurses=196;
maxConsec=2;
maxPresence=7;
maxHours=5;
minHours=1;
demand= [37 53 64 61 53 64 61 53 56 24 6 1 11 5 12 5 8 5 6 4 43 74 32 54  ];
